data;


param d:= 100;
param r:=5;
param p:=0.400000;
param M:=1000;
param U:=
         1         1       -5.255466e-01
         2         1        1.104706e+00
         3         1       -3.327401e-01
         4         1        9.674151e-01
         5         1       -1.784406e+00
         6         1       -3.808809e-01
         7         1        8.320040e-01
         8         1       -1.657082e-01
         9         1        4.843000e-01
        10         1       -2.035258e+00
        11         1       -1.087551e-01
        12         1       -9.058259e-01
        13         1       -2.164444e-01
        14         1       -4.748702e-01
        15         1       -5.463665e-01
        16         1        1.267409e+00
        17         1        2.343309e+00
        18         1       -4.926804e-01
        19         1       -4.720229e-01
        20         1       -7.579783e-01
        21         1       -4.472813e-01
        22         1       -8.715838e-01
        23         1        4.000673e-01
        24         1        2.330560e-01
        25         1       -6.625969e-01
        26         1       -8.022613e-01
        27         1       -1.619274e-01
        28         1       -1.082353e+00
        29         1       -2.375049e-01
        30         1       -1.541938e-01
        31         1       -2.194060e+00
        32         1       -8.324897e-02
        33         1       -4.426719e-01
        34         1        8.751770e-02
        35         1       -3.013649e-01
        36         1       -1.763290e+00
        37         1       -1.037471e+00
        38         1       -1.616205e+00
        39         1        5.155843e-01
        40         1       -1.142857e+00
        41         1        2.009976e+00
        42         1       -1.023362e+00
        43         1       -1.706147e-01
        44         1        1.072732e+00
        45         1        1.336736e-01
        46         1        4.009003e-01
        47         1        9.911552e-01
        48         1        5.454381e-01
        49         1       -5.980305e-01
        50         1       -7.988623e-01
        51         1       -8.937946e-01
        52         1       -3.708749e-01
        53         1       -2.657871e+00
        54         1       -1.116733e+00
        55         1        5.783845e-01
        56         1       -5.559197e-01
        57         1       -4.379590e-01
        58         1       -1.180399e+00
        59         1       -6.837743e-01
        60         1        1.176838e+00
        61         1       -8.235146e-01
        62         1        2.003224e-01
        63         1       -1.332654e+00
        64         1        4.268852e-01
        65         1        1.106706e+00
        66         1       -3.278946e-01
        67         1        4.897849e-01
        68         1        2.990442e-01
        69         1       -2.664848e-01
        70         1       -1.849883e-01
        71         1        3.332228e-01
        72         1       -8.810943e-01
        73         1       -4.361944e-01
        74         1       -2.351507e+00
        75         1       -8.837361e-01
        76         1       -3.925085e-01
        77         1       -4.142399e-01
        78         1       -3.792346e-01
        79         1        7.527999e-01
        80         1        6.053418e-01
        81         1       -1.585126e+00
        82         1        7.638591e-01
        83         1       -1.508734e+00
        84         1       -9.182310e-01
        85         1       -2.662890e+00
        86         1        2.665586e-01
        87         1       -6.643543e-01
        88         1        6.220015e-01
        89         1        1.388759e+00
        90         1        1.964351e+00
        91         1        4.002989e-01
        92         1       -3.889424e-02
        93         1        4.257295e-01
        94         1       -8.619939e-02
        95         1        9.561552e-01
        96         1        1.288699e+00
        97         1       -5.146846e-01
        98         1        8.357987e-01
        99         1        2.383288e-01
       100         1        5.970272e-01
         1         2       -3.045106e-01
         2         2       -1.415921e+00
         3         2       -4.608887e-01
         4         2        1.496766e+00
         5         2        2.698056e-02
         6         2        1.083144e+00
         7         2        5.642437e-01
         8         2        2.667847e-01
         9         2        2.014043e-01
        10         2       -1.009138e+00
        11         2       -1.404459e+00
        12         2       -7.446391e-01
        13         2       -1.043695e+00
        14         2        9.009683e-01
        15         2       -2.815762e+00
        16         2       -1.078152e-02
        17         2       -5.713780e-01
        18         2       -1.069121e-01
        19         2       -7.892650e-02
        20         2       -1.860277e+00
        21         2       -1.109545e-01
        22         2       -2.547061e-01
        23         2        1.273636e-01
        24         2        8.932031e-01
        25         2       -6.913975e-01
        26         2       -1.135007e+00
        27         2       -1.014408e+00
        28         2        7.789156e-01
        29         2       -1.510979e+00
        30         2       -8.107763e-01
        31         2       -2.839910e-02
        32         2       -1.711201e+00
        33         2        1.661264e+00
        34         2       -1.931091e+00
        35         2       -8.394047e-01
        36         2        1.252462e+00
        37         2        2.312185e-01
        38         2        2.009862e-01
        39         2        1.081718e+00
        40         2        2.166905e+00
        41         2       -1.063164e-01
        42         2       -9.052766e-01
        43         2        2.030781e+00
        44         2        1.599499e+00
        45         2        1.218136e-01
        46         2        4.592805e-01
        47         2        1.530843e+00
        48         2        1.484770e+00
        49         2       -6.254348e-01
        50         2        6.517209e-01
        51         2        1.563687e+00
        52         2        5.696142e-01
        53         2       -3.630113e-01
        54         2        2.656394e+00
        55         2        5.027039e-01
        56         2        1.105053e+00
        57         2       -4.337814e-01
        58         2        1.008720e+00
        59         2       -2.372582e-01
        60         2       -5.396955e-01
        61         2        5.376828e-01
        62         2        3.771119e-01
        63         2        6.716642e-01
        64         2        3.968711e-01
        65         2       -2.250983e+00
        66         2       -1.218630e+00
        67         2        3.645562e-01
        68         2       -1.780238e+00
        69         2        3.862198e-01
        70         2        4.027691e-01
        71         2        3.763943e-01
        72         2       -8.197767e-01
        73         2       -1.863953e-02
        74         2       -1.405512e+00
        75         2       -8.858537e-01
        76         2       -1.887919e-01
        77         2        7.141112e-01
        78         2       -5.563222e-01
        79         2       -1.929611e+00
        80         2       -1.109987e-01
        81         2        1.726928e+00
        82         2       -1.264456e-01
        83         2       -2.224266e-01
        84         2       -1.314819e-01
        85         2        8.304685e-01
        86         2       -1.367586e+00
        87         2        9.766697e-01
        88         2       -3.624441e-01
        89         2        1.243849e+00
        90         2        2.220462e+00
        91         2       -1.979704e-01
        92         2       -3.996273e-01
        93         2        5.190494e-01
        94         2       -2.375423e-01
        95         2        7.635866e-01
        96         2        1.718311e-01
        97         2        1.222120e+00
        98         2        6.970307e-01
        99         2       -1.125132e+00
       100         2       -1.101755e+00
         1         3        9.377760e-01
         2         3       -1.315416e+00
         3         3        1.635160e+00
         4         3        8.404860e-01
         5         3        1.830906e-01
         6         3       -2.911514e-01
         7         3        1.103927e-01
         8         3       -1.712145e+00
         9         3        2.229352e+00
        10         3       -3.009969e-01
        11         3       -1.309215e+00
        12         3       -1.050636e+00
        13         3       -9.925932e-01
        14         3        1.224163e+00
        15         3        5.141586e-01
        16         3       -2.247558e+00
        17         3       -6.130236e-01
        18         3        1.778443e-01
        19         3        5.805818e-01
        20         3       -7.861526e-01
        21         3       -6.564360e-01
        22         3        6.681511e-01
        23         3        8.797853e-01
        24         3        8.707913e-01
        25         3       -3.618595e-01
        26         3       -9.595417e-01
        27         3       -5.963304e-01
        28         3        7.225265e-02
        29         3        1.352704e+00
        30         3        1.619801e+00
        31         3       -7.065126e-01
        32         3       -3.849252e-01
        33         3       -2.011271e+00
        34         3        1.305747e-01
        35         3        1.267474e-02
        36         3        2.554169e-01
        37         3        5.931976e-01
        38         3        1.709398e+00
        39         3       -1.570836e+00
        40         3        1.720861e-01
        41         3       -4.494597e-01
        42         3        6.544103e-01
        43         3       -9.383255e-01
        44         3        1.834927e+00
        45         3       -1.925804e+00
        46         3        9.168792e-01
        47         3       -3.018056e-01
        48         3       -1.371688e+00
        49         3        1.581179e+00
        50         3       -1.542096e+00
        51         3       -1.697491e+00
        52         3       -8.519458e-01
        53         3       -1.249770e-01
        54         3       -7.206626e-01
        55         3        2.291047e-01
        56         3       -1.556498e+00
        57         3        1.590960e+00
        58         3        8.436112e-01
        59         3       -2.523755e-02
        60         3        5.258182e-02
        61         3        2.573929e-01
        62         3       -1.845495e+00
        63         3       -2.030704e+00
        64         3        2.715612e+00
        65         3        2.098113e+00
        66         3        9.149230e-01
        67         3       -4.700810e-01
        68         3        1.259260e+00
        69         3        2.720190e+00
        70         3        5.050293e-01
        71         3       -2.268903e+00
        72         3        1.400837e+00
        73         3        5.871195e-01
        74         3       -2.442914e-01
        75         3       -3.869463e-01
        76         3       -8.651439e-01
        77         3        2.699323e+00
        78         3       -3.993766e-01
        79         3       -2.893541e-01
        80         3        3.102324e-01
        81         3       -9.439690e-01
        82         3        4.454414e-01
        83         3       -2.510202e-01
        84         3       -4.917622e-02
        85         3       -6.364570e-03
        86         3       -1.126126e+00
        87         3        1.562281e+00
        88         3        9.050731e-03
        89         3       -9.197560e-01
        90         3       -8.474893e-01
        91         3       -1.841912e-01
        92         3        7.074382e-01
        93         3        1.537199e+00
        94         3       -7.910697e-01
        95         3        3.767962e-01
        96         3       -5.575019e-01
        97         3        3.381395e-01
        98         3        2.145091e+00
        99         3        2.783612e-01
       100         3        2.223008e+00
         1         4        6.058501e-01
         2         4       -2.300082e+00
         3         4       -8.433933e-01
         4         4        1.014756e+00
         5         4       -6.368799e-01
         6         4        2.453381e-01
         7         4        3.608901e-01
         8         4       -1.415166e+00
         9         4       -1.976869e+00
        10         4        5.393873e-01
        11         4       -2.360493e+00
        12         4       -9.631948e-01
        13         4       -1.142067e+00
        14         4       -6.824430e-01
        15         4       -1.157840e-02
        16         4        2.624644e-01
        17         4       -8.243559e-01
        18         4       -6.392728e-01
        19         4       -4.933281e-01
        20         4       -6.411890e-01
        21         4       -1.596425e+00
        22         4        2.259950e-01
        23         4       -3.439249e-01
        24         4       -2.419569e-02
        25         4       -5.933514e-01
        26         4       -1.498997e-01
        27         4        8.977883e-02
        28         4        1.273406e+00
        29         4       -2.111208e-01
        30         4       -2.258110e-01
        31         4        1.207474e+00
        32         4        2.105728e-01
        33         4       -1.267403e+00
        34         4       -4.952247e-01
        35         4        3.090217e+00
        36         4        1.148252e+00
        37         4        2.065568e+00
        38         4        1.272229e-01
        39         4        1.169730e+00
        40         4       -6.467331e-01
        41         4        2.039192e-01
        42         4        8.473677e-01
        43         4        1.791278e+00
        44         4        1.448172e+00
        45         4       -2.069580e+00
        46         4        1.773192e+00
        47         4        7.931945e-01
        48         4        1.979917e+00
        49         4       -1.115706e+00
        50         4       -6.976217e-02
        51         4       -1.229043e+00
        52         4       -2.640942e-02
        53         4       -3.308709e-02
        54         4       -1.144064e+00
        55         4        6.118602e-01
        56         4       -8.538509e-01
        57         4       -1.990244e+00
        58         4       -1.412538e+00
        59         4       -1.088420e+00
        60         4       -1.591516e+00
        61         4        3.610136e-01
        62         4        9.206208e-01
        63         4        7.713289e-01
        64         4        1.897698e+00
        65         4        9.028230e-01
        66         4       -1.198758e+00
        67         4       -1.438383e+00
        68         4       -1.394700e+00
        69         4        1.063532e+00
        70         4        4.866650e-01
        71         4       -6.611057e-01
        72         4        1.084233e+00
        73         4       -4.038118e-01
        74         4        3.742582e-01
        75         4        1.024847e+00
        76         4        8.298411e-01
        77         4       -7.423157e-01
        78         4       -4.340946e-01
        79         4        2.119318e-01
        80         4        1.034164e+00
        81         4        7.251267e-01
        82         4       -6.719462e-01
        83         4        7.363571e-01
        84         4        2.781430e-01
        85         4        4.564548e-01
        86         4       -8.588734e-01
        87         4       -1.132460e+00
        88         4       -7.863411e-01
        89         4        1.805674e-01
        90         4       -8.202590e-02
        91         4        2.230088e-01
        92         4       -1.403075e+00
        93         4        4.834606e-01
        94         4       -9.415291e-01
        95         4       -4.853552e-01
        96         4       -8.582152e-01
        97         4        2.276274e-02
        98         4        7.400597e-01
        99         4       -7.360653e-01
       100         4        2.503524e-01
         1         5       -9.269896e-02
         2         5        3.514960e-01
         3         5       -4.852374e-01
         4         5        1.962553e-01
         5         5        1.347363e+00
         6         5        1.041334e-01
         7         5        9.924900e-01
         8         5       -8.779466e-01
         9         5       -3.217566e-01
        10         5       -8.604748e-01
        11         5        2.459334e-02
        12         5       -3.954560e-01
        13         5       -1.448125e-01
        14         5        3.909758e-01
        15         5       -1.476557e+00
        16         5       -1.274199e-01
        17         5       -6.707542e-01
        18         5       -9.013994e-01
        19         5       -4.700551e-02
        20         5       -1.227850e+00
        21         5       -2.298835e-01
        22         5        1.471136e-01
        23         5        2.127440e+00
        24         5        1.498419e+00
        25         5        1.968136e+00
        26         5       -4.090995e-01
        27         5       -1.749167e+00
        28         5        1.797367e+00
        29         5       -1.919436e-01
        30         5        1.284308e+00
        31         5        1.258988e+00
        32         5        6.895884e-01
        33         5       -5.169169e-01
        34         5       -8.577540e-01
        35         5        1.257280e+00
        36         5       -7.866913e-01
        37         5        8.551697e-01
        38         5        4.834252e-01
        39         5       -3.883314e-01
        40         5       -9.142910e-01
        41         5       -3.135217e-01
        42         5       -1.174444e+00
        43         5        9.514581e-01
        44         5       -1.811180e+00
        45         5       -1.478932e+00
        46         5       -1.888097e+00
        47         5       -5.550417e-01
        48         5        6.798195e-01
        49         5       -1.115066e+00
        50         5        4.949197e-02
        51         5        4.195651e-01
        52         5       -4.005298e-01
        53         5       -3.307385e-01
        54         5       -1.892439e+00
        55         5       -4.454663e-01
        56         5        1.046499e+00
        57         5       -1.461523e-01
        58         5       -9.305791e-01
        59         5       -2.703765e-01
        60         5        8.950181e-01
        61         5       -4.598148e-01
        62         5       -1.096229e+00
        63         5        1.220946e+00
        64         5       -6.263124e-01
        65         5        7.009462e-01
        66         5        7.841666e-02
        67         5        5.365906e-01
        68         5       -9.097690e-01
        69         5        9.830083e-01
        70         5        1.037050e+00
        71         5       -9.465075e-01
        72         5       -6.397607e-01
        73         5       -9.494704e-01
        74         5        2.936457e-01
        75         5       -4.913639e-01
        76         5       -3.344865e-01
        77         5        3.021928e-01
        78         5        2.317963e-01
        79         5       -9.478655e-01
        80         5       -6.490213e-01
        81         5        7.200956e-01
        82         5        1.010943e+00
        83         5       -7.093881e-01
        84         5        3.363623e-01
        85         5        1.626557e-01
        86         5       -1.598906e+00
        87         5       -1.246887e+00
        88         5       -1.224764e+00
        89         5        2.272782e-01
        90         5       -1.021505e+00
        91         5        6.888943e-01
        92         5        7.652108e-01
        93         5        1.573553e-01
        94         5       -1.619732e+00
        95         5       -1.635388e+00
        96         5       -1.675080e+00
        97         5        4.189166e-01
        98         5        1.114319e+00
        99         5        4.370520e-01
       100         5        1.985521e+00
;

param theta:=
    1        1.872357e-01
    2       -4.325573e-01
    3       -1.063462e+00
    4        4.452709e-01
    5       -4.546062e-01
;
param X_true:=
    1       -6.520626e-01
    2        1.034250e+00
    3       -1.756817e+00
    4       -9.975043e-01
    5       -1.436589e+00
    6       -1.683057e-01
    7       -4.961834e-01
    8        1.443362e+00
    9       -3.101240e+00
   10        1.006886e+00
   11        9.172064e-01
   12        1.020701e+00
   13        1.023820e+00
   14       -2.262095e+00
   15        1.234987e+00
   16        2.806953e+00
   17        1.275699e+00
   18       -1.100003e-01
   19       -8.699613e-01
   20        1.771484e+00
   21        5.600632e-02
   22       -7.298194e-01
   23       -2.036090e+00
   24       -1.960742e+00
   25       -5.990981e-01
   26        1.480412e+00
   27        1.877803e+00
   28       -8.665018e-01
   29       -8.361807e-01
   30       -2.085161e+00
   31        3.181364e-01
   32        9.142294e-01
   33        1.008089e+00
   34        8.822639e-01
   35        1.097602e+00
   36       -2.746206e-01
   37       -3.941378e-01
   38       -2.370548e+00
   39        1.996540e+00
   40       -1.206630e+00
   41        1.133638e+00
   42        4.152514e-01
   43        4.525643e-01
   44       -9.741920e-01
   45        1.771163e+00
   46        5.492235e-01
   47        4.498727e-01
   48        1.491164e+00
   49       -1.512835e+00
   50        1.154915e+00
   51        2.234880e-01
   52        7.605038e-01
   53       -7.209406e-02
   54       -2.408417e-01
   55        1.221573e-01
   56        2.172494e-01
   57       -2.406047e+00
   58       -1.760405e+00
   59       -3.602869e-01
   60       -7.176600e-01
   61       -2.907140e-01
   62        2.745276e+00
   63        1.407923e+00
   64       -1.849975e+00
   65       -9.670224e-01
   66       -1.076672e+00
   67       -4.504807e-01
   68       -7.205613e-01
   69       -3.083097e+00
   70       -1.000688e+00
   71        2.448387e+00
   72       -5.264914e-01
   73       -4.461581e-01
   74        4.606259e-01
   75        1.308930e+00
   76        1.449783e+00
   77       -3.724991e+00
   78        2.956908e-01
   79        1.808608e+00
   80        5.869670e-01
   81       -4.439499e-02
   82       -1.034772e+00
   83        7.310442e-01
   84       -9.181852e-02
   85       -7.217430e-01
   86        2.183502e+00
   87       -2.145691e+00
   88        4.702641e-01
   89        6.771939e-01
   90        7.364504e-01
   91        1.425878e-01
   92       -1.559372e+00
   93       -1.635822e+00
   94        1.244988e+00
   95       -2.463400e-02
   96        1.139209e+00
   97       -1.164909e+00
   98       -2.603285e+00
   99       -2.911537e-01
  100       -2.566882e+00
;
param X:=
    1       -6.520626e-01
    2        1.034250e+00
    3       -1.756817e+00
    4       -9.975043e-01
    5       -7.581297e-01
    6       -1.683057e-01
    7       -4.961834e-01
    8        1.443362e+00
    9        1.203937e+00
   10       -2.142047e-01
   11        9.172064e-01
   12        1.020701e+00
   13        2.540077e+00
   14        1.800722e-01
   15        1.234987e+00
   16        2.806953e+00
   17        1.275699e+00
   18       -1.100003e-01
   19       -8.699613e-01
   20        1.771484e+00
   21        8.662472e-01
   22       -8.972095e-02
   23       -2.036090e+00
   24        1.974872e+00
   25       -5.990981e-01
   26        4.063005e-01
   27        1.877803e+00
   28       -8.665018e-01
   29        9.173730e-01
   30       -2.085161e+00
   31        3.181364e-01
   32        9.142294e-01
   33        4.539465e-01
   34        7.523272e-01
   35        1.097602e+00
   36       -2.746206e-01
   37       -3.941378e-01
   38       -2.123965e-01
   39        1.996540e+00
   40        9.440189e-03
   41        4.899226e-02
   42        4.152514e-01
   43        4.525643e-01
   44        4.742225e-01
   45        1.085294e+00
   46        5.492235e-01
   47        2.344606e+00
   48       -5.259571e-01
   49       -1.512835e+00
   50        2.338492e-01
   51        2.234880e-01
   52        7.605038e-01
   53       -7.209406e-02
   54       -2.408417e-01
   55        1.221573e-01
   56        2.172494e-01
   57        6.154074e-01
   58        1.123985e-01
   59       -3.602869e-01
   60        4.923026e-01
   61       -1.853692e-01
   62        2.745276e+00
   63        1.407923e+00
   64        5.533627e-01
   65       -9.670224e-01
   66       -1.076672e+00
   67       -3.004947e+00
   68       -7.401565e-01
   69       -3.083097e+00
   70        6.281002e-01
   71        2.448387e+00
   72       -5.264914e-01
   73       -1.334426e+00
   74        4.606259e-01
   75        1.308930e+00
   76        7.666843e-01
   77       -3.724991e+00
   78        2.956908e-01
   79        4.222657e-01
   80        5.869670e-01
   81       -1.158537e+00
   82       -1.034772e+00
   83        7.310442e-01
   84       -9.181852e-02
   85       -7.217430e-01
   86       -9.171560e-01
   87       -2.145691e+00
   88       -1.147380e+00
   89       -9.989217e-02
   90        7.364504e-01
   91        1.425878e-01
   92       -1.559372e+00
   93       -1.635822e+00
   94        1.244988e+00
   95       -1.576953e-01
   96        1.139209e+00
   97       -5.794416e-01
   98       -2.280928e-01
   99       -5.986914e-01
  100       -9.508686e-01
;
param outliervec:=
    1    0
    2    0
    3    0
    4    0
    5    1
    6    0
    7    0
    8    0
    9    1
   10    1
   11    0
   12    0
   13    1
   14    1
   15    0
   16    0
   17    0
   18    0
   19    0
   20    0
   21    1
   22    1
   23    0
   24    1
   25    0
   26    1
   27    0
   28    0
   29    1
   30    0
   31    0
   32    0
   33    1
   34    1
   35    0
   36    0
   37    0
   38    1
   39    0
   40    1
   41    1
   42    0
   43    0
   44    1
   45    1
   46    0
   47    1
   48    1
   49    0
   50    1
   51    0
   52    0
   53    0
   54    0
   55    0
   56    0
   57    1
   58    1
   59    0
   60    1
   61    1
   62    0
   63    0
   64    1
   65    0
   66    0
   67    1
   68    1
   69    0
   70    1
   71    0
   72    0
   73    1
   74    0
   75    0
   76    1
   77    0
   78    0
   79    1
   80    0
   81    1
   82    0
   83    0
   84    0
   85    0
   86    1
   87    0
   88    1
   89    1
   90    0
   91    0
   92    0
   93    0
   94    0
   95    1
   96    0
   97    1
   98    1
   99    1
  100    1
;